data/instances/vrp_files/train_35.vrp
NAME : 35
COMMENT : Generated instance No. 35
TYPE : CVRP
DIMENSION : 21
EDGE_WEIGHT_TYPE : EUC_2D
CAPACITY : 30
NODE_COORD_SECTION
 1 786 201
 2 260 730
 3 981 256
 4 654 198
 5 565 463
 6 972 608
 7 349 114
 8 151 225
 9 250 850
 10 561 523
 11 114 860
 12 722 67
 13 707 543
 14 81 458
 15 484 165
 16 945 849
 17 669 462
 18 411 650
 19 545 62
 20 512 806
 21 459 51
DEMAND_SECTION
1 0
2 7
3 5
4 4
5 10
6 4
7 4
8 6
9 8
10 8
11 5
12 6
13 4
14 9
15 8
16 10
17 10
18 1
19 2
20 9
21 8
DEPOT_SECTION
 1
 -1
EOF